(set-logic ALL)
(declare-const k Int)
(declare-fun s () (_ BitVec k))
(declare-fun t () (_ BitVec k))
(assert (distinct (= t (bvmul s (bvnot (_ bv0 k)))) (= s (bvmul t (bvnot (_ bv0 k))))))
(check-sat)
